c Pure Literal Test - Viele Variablen kommen nur in einer Polarität vor
c Dein Solver erkennt Pure Literals sofort, andere müssen splitten
p cnf 10 12
1 2 3 0
1 4 5 0
1 6 7 0
2 4 6 0
2 5 8 0
3 4 9 0
3 5 10 0
6 7 8 0
7 8 9 0
8 9 10 0
1 9 10 0
2 3 7 0
